c FILE: v120_d50.dat

p edge 120 3570
e 1 2
e 1 3
e 1 4
e 1 6
e 1 10
e 1 11
e 1 13
e 1 15
e 1 26
e 1 29
e 1 30
e 1 34
e 1 35
e 1 37
e 1 38
e 1 47
e 1 49
e 1 52
e 1 56
e 1 60
e 1 65
e 1 67
e 1 71
e 1 72
e 1 73
e 1 81
e 1 82
e 1 84
e 1 88
e 1 89
e 1 91
e 1 95
e 1 96
e 1 98
e 1 101
e 1 103
e 1 104
e 1 106
e 1 107
e 1 108
e 1 111
e 2 3
e 2 4
e 2 5
e 2 7
e 2 8
e 2 10
e 2 12
e 2 14
e 2 16
e 2 19
e 2 20
e 2 22
e 2 23
e 2 24
e 2 26
e 2 29
e 2 30
e 2 34
e 2 36
e 2 37
e 2 38
e 2 40
e 2 41
e 2 47
e 2 48
e 2 49
e 2 50
e 2 52
e 2 58
e 2 59
e 2 60
e 2 63
e 2 64
e 2 65
e 2 66
e 2 68
e 2 70
e 2 72
e 2 74
e 2 76
e 2 79
e 2 80
e 2 82
e 2 83
e 2 84
e 2 86
e 2 87
e 2 88
e 2 89
e 2 91
e 2 94
e 2 99
e 2 104
e 2 106
e 2 107
e 2 108
e 2 110
e 2 111
e 2 112
e 2 116
e 2 119
e 2 120
e 3 4
e 3 5
e 3 6
e 3 11
e 3 13
e 3 14
e 3 15
e 3 17
e 3 18
e 3 19
e 3 24
e 3 26
e 3 29
e 3 31
e 3 32
e 3 34
e 3 38
e 3 39
e 3 40
e 3 42
e 3 47
e 3 48
e 3 50
e 3 53
e 3 54
e 3 55
e 3 57
e 3 58
e 3 59
e 3 67
e 3 68
e 3 69
e 3 70
e 3 71
e 3 72
e 3 73
e 3 76
e 3 80
e 3 81
e 3 82
e 3 83
e 3 85
e 3 89
e 3 90
e 3 92
e 3 93
e 3 98
e 3 100
e 3 101
e 3 103
e 3 105
e 3 108
e 3 109
e 3 110
e 3 115
e 3 119
e 4 5
e 4 6
e 4 8
e 4 10
e 4 13
e 4 16
e 4 17
e 4 18
e 4 19
e 4 20
e 4 21
e 4 22
e 4 23
e 4 24
e 4 25
e 4 26
e 4 28
e 4 35
e 4 36
e 4 39
e 4 41
e 4 44
e 4 46
e 4 47
e 4 48
e 4 49
e 4 50
e 4 51
e 4 55
e 4 57
e 4 58
e 4 59
e 4 62
e 4 63
e 4 65
e 4 69
e 4 70
e 4 73
e 4 74
e 4 76
e 4 77
e 4 80
e 4 81
e 4 82
e 4 83
e 4 84
e 4 85
e 4 87
e 4 88
e 4 89
e 4 90
e 4 91
e 4 92
e 4 94
e 4 97
e 4 98
e 4 99
e 4 102
e 4 104
e 4 105
e 4 110
e 4 111
e 4 113
e 4 115
e 4 119
e 4 120
e 5 6
e 5 8
e 5 9
e 5 10
e 5 11
e 5 12
e 5 13
e 5 17
e 5 18
e 5 19
e 5 20
e 5 23
e 5 24
e 5 26
e 5 28
e 5 30
e 5 31
e 5 34
e 5 35
e 5 37
e 5 38
e 5 41
e 5 42
e 5 47
e 5 53
e 5 54
e 5 55
e 5 56
e 5 57
e 5 58
e 5 60
e 5 61
e 5 62
e 5 64
e 5 65
e 5 66
e 5 70
e 5 73
e 5 76
e 5 78
e 5 80
e 5 81
e 5 87
e 5 88
e 5 90
e 5 92
e 5 93
e 5 94
e 5 95
e 5 101
e 5 102
e 5 103
e 5 107
e 5 109
e 5 110
e 5 111
e 5 113
e 5 114
e 5 115
e 5 116
e 5 118
e 5 120
e 6 7
e 6 8
e 6 13
e 6 14
e 6 15
e 6 16
e 6 19
e 6 20
e 6 21
e 6 23
e 6 25
e 6 27
e 6 28
e 6 36
e 6 41
e 6 43
e 6 44
e 6 45
e 6 47
e 6 49
e 6 51
e 6 52
e 6 56
e 6 60
e 6 61
e 6 65
e 6 67
e 6 68
e 6 70
e 6 71
e 6 74
e 6 75
e 6 81
e 6 85
e 6 86
e 6 87
e 6 89
e 6 90
e 6 92
e 6 95
e 6 97
e 6 101
e 6 103
e 6 112
e 6 113
e 6 117
e 6 119
e 7 8
e 7 11
e 7 12
e 7 13
e 7 14
e 7 15
e 7 18
e 7 20
e 7 21
e 7 22
e 7 24
e 7 25
e 7 28
e 7 35
e 7 37
e 7 39
e 7 41
e 7 43
e 7 45
e 7 46
e 7 48
e 7 49
e 7 52
e 7 53
e 7 56
e 7 57
e 7 61
e 7 62
e 7 64
e 7 66
e 7 68
e 7 69
e 7 70
e 7 72
e 7 74
e 7 75
e 7 77
e 7 78
e 7 80
e 7 82
e 7 84
e 7 88
e 7 91
e 7 92
e 7 93
e 7 94
e 7 95
e 7 96
e 7 97
e 7 98
e 7 99
e 7 101
e 7 103
e 7 109
e 7 110
e 7 113
e 7 115
e 7 116
e 7 118
e 7 119
e 8 9
e 8 13
e 8 14
e 8 16
e 8 17
e 8 18
e 8 19
e 8 20
e 8 22
e 8 25
e 8 26
e 8 30
e 8 31
e 8 34
e 8 36
e 8 38
e 8 39
e 8 40
e 8 41
e 8 42
e 8 45
e 8 46
e 8 48
e 8 49
e 8 50
e 8 52
e 8 53
e 8 58
e 8 60
e 8 61
e 8 62
e 8 63
e 8 65
e 8 67
e 8 70
e 8 71
e 8 72
e 8 73
e 8 74
e 8 75
e 8 79
e 8 82
e 8 85
e 8 86
e 8 87
e 8 90
e 8 91
e 8 92
e 8 93
e 8 94
e 8 98
e 8 99
e 8 103
e 8 105
e 8 111
e 8 112
e 8 114
e 8 115
e 8 117
e 8 118
e 9 10
e 9 13
e 9 16
e 9 17
e 9 19
e 9 21
e 9 25
e 9 26
e 9 29
e 9 31
e 9 36
e 9 37
e 9 38
e 9 40
e 9 43
e 9 44
e 9 48
e 9 49
e 9 50
e 9 52
e 9 53
e 9 55
e 9 56
e 9 58
e 9 60
e 9 61
e 9 63
e 9 68
e 9 69
e 9 74
e 9 75
e 9 77
e 9 78
e 9 79
e 9 80
e 9 83
e 9 85
e 9 86
e 9 87
e 9 93
e 9 94
e 9 96
e 9 97
e 9 98
e 9 102
e 9 104
e 9 105
e 9 106
e 9 108
e 9 109
e 9 110
e 9 114
e 9 115
e 9 118
e 10 11
e 10 14
e 10 15
e 10 16
e 10 17
e 10 18
e 10 21
e 10 23
e 10 24
e 10 25
e 10 26
e 10 27
e 10 29
e 10 30
e 10 33
e 10 34
e 10 35
e 10 38
e 10 39
e 10 40
e 10 41
e 10 42
e 10 50
e 10 51
e 10 52
e 10 54
e 10 57
e 10 62
e 10 67
e 10 68
e 10 69
e 10 71
e 10 76
e 10 78
e 10 79
e 10 80
e 10 82
e 10 91
e 10 94
e 10 100
e 10 101
e 10 102
e 10 103
e 10 104
e 10 105
e 10 113
e 10 117
e 10 118
e 10 119
e 11 12
e 11 15
e 11 16
e 11 18
e 11 20
e 11 23
e 11 25
e 11 26
e 11 29
e 11 35
e 11 36
e 11 38
e 11 39
e 11 41
e 11 42
e 11 43
e 11 48
e 11 49
e 11 50
e 11 53
e 11 55
e 11 56
e 11 57
e 11 60
e 11 62
e 11 67
e 11 69
e 11 70
e 11 74
e 11 77
e 11 78
e 11 80
e 11 81
e 11 86
e 11 90
e 11 93
e 11 94
e 11 96
e 11 97
e 11 98
e 11 99
e 11 103
e 11 105
e 11 106
e 11 109
e 11 112
e 11 113
e 11 115
e 11 117
e 11 119
e 12 13
e 12 18
e 12 20
e 12 21
e 12 23
e 12 31
e 12 34
e 12 37
e 12 39
e 12 40
e 12 43
e 12 45
e 12 46
e 12 47
e 12 55
e 12 56
e 12 60
e 12 63
e 12 65
e 12 66
e 12 68
e 12 72
e 12 77
e 12 78
e 12 79
e 12 82
e 12 83
e 12 85
e 12 88
e 12 89
e 12 91
e 12 92
e 12 93
e 12 95
e 12 101
e 12 102
e 12 103
e 12 109
e 12 110
e 12 112
e 12 114
e 12 117
e 13 14
e 13 15
e 13 17
e 13 19
e 13 20
e 13 21
e 13 25
e 13 27
e 13 29
e 13 32
e 13 35
e 13 37
e 13 40
e 13 42
e 13 43
e 13 46
e 13 53
e 13 54
e 13 55
e 13 57
e 13 60
e 13 63
e 13 69
e 13 71
e 13 72
e 13 74
e 13 78
e 13 79
e 13 80
e 13 81
e 13 86
e 13 88
e 13 89
e 13 90
e 13 93
e 13 94
e 13 97
e 13 98
e 13 100
e 13 103
e 13 105
e 13 107
e 13 110
e 13 111
e 13 114
e 13 115
e 13 116
e 13 118
e 13 119
e 13 120
e 14 15
e 14 18
e 14 21
e 14 23
e 14 24
e 14 26
e 14 27
e 14 28
e 14 32
e 14 34
e 14 35
e 14 41
e 14 42
e 14 46
e 14 48
e 14 49
e 14 51
e 14 52
e 14 53
e 14 56
e 14 60
e 14 61
e 14 66
e 14 69
e 14 71
e 14 72
e 14 75
e 14 76
e 14 77
e 14 80
e 14 81
e 14 83
e 14 85
e 14 87
e 14 88
e 14 90
e 14 94
e 14 95
e 14 96
e 14 99
e 14 102
e 14 103
e 14 104
e 14 110
e 14 111
e 14 113
e 14 114
e 14 116
e 14 118
e 14 119
e 15 16
e 15 20
e 15 21
e 15 22
e 15 27
e 15 30
e 15 37
e 15 38
e 15 40
e 15 41
e 15 42
e 15 47
e 15 49
e 15 51
e 15 53
e 15 58
e 15 59
e 15 60
e 15 61
e 15 63
e 15 65
e 15 66
e 15 67
e 15 68
e 15 71
e 15 72
e 15 83
e 15 84
e 15 85
e 15 86
e 15 87
e 15 89
e 15 90
e 15 92
e 15 95
e 15 96
e 15 99
e 15 100
e 15 101
e 15 103
e 15 105
e 15 107
e 15 110
e 15 111
e 15 112
e 15 115
e 15 118
e 15 119
e 16 17
e 16 21
e 16 24
e 16 28
e 16 29
e 16 31
e 16 32
e 16 36
e 16 37
e 16 41
e 16 45
e 16 46
e 16 48
e 16 49
e 16 50
e 16 53
e 16 54
e 16 58
e 16 66
e 16 68
e 16 70
e 16 71
e 16 73
e 16 75
e 16 76
e 16 77
e 16 78
e 16 79
e 16 80
e 16 83
e 16 84
e 16 87
e 16 89
e 16 91
e 16 93
e 16 100
e 16 104
e 16 106
e 16 108
e 16 110
e 16 112
e 16 113
e 16 116
e 16 117
e 17 18
e 17 19
e 17 21
e 17 25
e 17 27
e 17 28
e 17 29
e 17 33
e 17 34
e 17 36
e 17 38
e 17 42
e 17 43
e 17 44
e 17 47
e 17 48
e 17 49
e 17 51
e 17 54
e 17 56
e 17 57
e 17 59
e 17 64
e 17 66
e 17 68
e 17 69
e 17 74
e 17 75
e 17 77
e 17 78
e 17 82
e 17 84
e 17 85
e 17 87
e 17 89
e 17 90
e 17 95
e 17 102
e 17 103
e 17 105
e 17 106
e 17 107
e 17 109
e 17 110
e 17 111
e 17 112
e 17 114
e 17 116
e 17 117
e 17 119
e 18 19
e 18 20
e 18 22
e 18 23
e 18 24
e 18 25
e 18 26
e 18 28
e 18 33
e 18 34
e 18 36
e 18 39
e 18 42
e 18 43
e 18 47
e 18 48
e 18 49
e 18 50
e 18 51
e 18 52
e 18 53
e 18 54
e 18 56
e 18 58
e 18 60
e 18 61
e 18 62
e 18 63
e 18 65
e 18 66
e 18 67
e 18 68
e 18 69
e 18 71
e 18 73
e 18 74
e 18 75
e 18 76
e 18 84
e 18 87
e 18 89
e 18 90
e 18 92
e 18 93
e 18 94
e 18 95
e 18 96
e 18 98
e 18 99
e 18 100
e 18 101
e 18 103
e 18 105
e 18 106
e 18 109
e 18 111
e 18 114
e 18 116
e 19 20
e 19 22
e 19 24
e 19 28
e 19 29
e 19 30
e 19 31
e 19 36
e 19 37
e 19 39
e 19 40
e 19 41
e 19 42
e 19 43
e 19 45
e 19 46
e 19 52
e 19 53
e 19 57
e 19 66
e 19 70
e 19 73
e 19 74
e 19 77
e 19 80
e 19 81
e 19 82
e 19 83
e 19 86
e 19 89
e 19 90
e 19 91
e 19 93
e 19 94
e 19 101
e 19 102
e 19 104
e 19 105
e 19 108
e 19 110
e 19 115
e 19 119
e 20 21
e 20 24
e 20 27
e 20 29
e 20 30
e 20 31
e 20 32
e 20 34
e 20 44
e 20 46
e 20 48
e 20 50
e 20 51
e 20 53
e 20 54
e 20 57
e 20 58
e 20 59
e 20 64
e 20 66
e 20 70
e 20 71
e 20 72
e 20 75
e 20 76
e 20 77
e 20 82
e 20 84
e 20 86
e 20 89
e 20 90
e 20 93
e 20 94
e 20 95
e 20 101
e 20 104
e 20 106
e 20 110
e 20 111
e 20 113
e 20 115
e 20 116
e 20 117
e 20 118
e 20 120
e 21 22
e 21 23
e 21 25
e 21 27
e 21 28
e 21 30
e 21 31
e 21 33
e 21 34
e 21 35
e 21 38
e 21 40
e 21 41
e 21 45
e 21 46
e 21 48
e 21 49
e 21 50
e 21 51
e 21 52
e 21 55
e 21 58
e 21 61
e 21 62
e 21 64
e 21 66
e 21 68
e 21 73
e 21 74
e 21 75
e 21 76
e 21 77
e 21 78
e 21 82
e 21 84
e 21 85
e 21 87
e 21 89
e 21 90
e 21 99
e 21 101
e 21 103
e 21 104
e 21 105
e 21 106
e 21 108
e 21 109
e 21 111
e 21 112
e 21 113
e 21 118
e 22 23
e 22 27
e 22 29
e 22 30
e 22 33
e 22 34
e 22 35
e 22 36
e 22 40
e 22 41
e 22 42
e 22 43
e 22 44
e 22 46
e 22 47
e 22 48
e 22 50
e 22 51
e 22 52
e 22 55
e 22 56
e 22 60
e 22 61
e 22 64
e 22 65
e 22 67
e 22 70
e 22 72
e 22 74
e 22 75
e 22 76
e 22 77
e 22 78
e 22 80
e 22 81
e 22 85
e 22 86
e 22 88
e 22 89
e 22 90
e 22 91
e 22 92
e 22 93
e 22 95
e 22 100
e 22 101
e 22 102
e 22 103
e 22 104
e 22 110
e 22 117
e 23 24
e 23 27
e 23 30
e 23 31
e 23 32
e 23 33
e 23 35
e 23 36
e 23 41
e 23 43
e 23 44
e 23 45
e 23 46
e 23 47
e 23 48
e 23 49
e 23 51
e 23 52
e 23 53
e 23 54
e 23 56
e 23 57
e 23 58
e 23 61
e 23 62
e 23 63
e 23 64
e 23 65
e 23 66
e 23 67
e 23 68
e 23 69
e 23 73
e 23 74
e 23 76
e 23 77
e 23 78
e 23 79
e 23 80
e 23 81
e 23 83
e 23 84
e 23 85
e 23 86
e 23 87
e 23 88
e 23 89
e 23 91
e 23 92
e 23 93
e 23 94
e 23 95
e 23 96
e 23 97
e 23 101
e 23 103
e 23 104
e 23 105
e 23 106
e 23 107
e 23 109
e 23 115
e 23 116
e 23 117
e 23 118
e 23 119
e 23 120
e 24 25
e 24 26
e 24 28
e 24 29
e 24 32
e 24 34
e 24 38
e 24 42
e 24 43
e 24 46
e 24 52
e 24 54
e 24 55
e 24 56
e 24 58
e 24 60
e 24 64
e 24 65
e 24 68
e 24 70
e 24 71
e 24 72
e 24 75
e 24 78
e 24 81
e 24 84
e 24 87
e 24 88
e 24 89
e 24 90
e 24 91
e 24 93
e 24 94
e 24 100
e 24 101
e 24 102
e 24 104
e 24 107
e 24 108
e 24 111
e 24 112
e 24 114
e 24 117
e 24 118
e 24 120
e 25 26
e 25 30
e 25 31
e 25 32
e 25 33
e 25 37
e 25 38
e 25 39
e 25 41
e 25 42
e 25 49
e 25 50
e 25 52
e 25 53
e 25 54
e 25 55
e 25 56
e 25 57
e 25 58
e 25 59
e 25 61
e 25 64
e 25 67
e 25 69
e 25 71
e 25 76
e 25 78
e 25 82
e 25 83
e 25 88
e 25 91
e 25 93
e 25 95
e 25 97
e 25 98
e 25 99
e 25 101
e 25 105
e 25 108
e 25 109
e 25 111
e 25 114
e 25 115
e 25 119
e 25 120
e 26 27
e 26 28
e 26 33
e 26 34
e 26 35
e 26 36
e 26 38
e 26 40
e 26 41
e 26 46
e 26 47
e 26 48
e 26 50
e 26 51
e 26 52
e 26 54
e 26 55
e 26 56
e 26 59
e 26 60
e 26 61
e 26 62
e 26 67
e 26 69
e 26 70
e 26 71
e 26 75
e 26 76
e 26 78
e 26 79
e 26 80
e 26 82
e 26 83
e 26 87
e 26 90
e 26 91
e 26 94
e 26 97
e 26 98
e 26 99
e 26 100
e 26 105
e 26 106
e 26 107
e 26 108
e 26 110
e 26 114
e 26 115
e 26 117
e 26 119
e 27 28
e 27 29
e 27 30
e 27 32
e 27 33
e 27 34
e 27 35
e 27 38
e 27 41
e 27 44
e 27 47
e 27 48
e 27 49
e 27 50
e 27 52
e 27 56
e 27 60
e 27 61
e 27 63
e 27 64
e 27 65
e 27 67
e 27 70
e 27 71
e 27 72
e 27 73
e 27 76
e 27 78
e 27 79
e 27 80
e 27 84
e 27 86
e 27 87
e 27 91
e 27 92
e 27 94
e 27 95
e 27 96
e 27 97
e 27 98
e 27 100
e 27 102
e 27 103
e 27 105
e 27 106
e 27 109
e 27 110
e 27 111
e 27 113
e 27 114
e 27 115
e 27 116
e 27 118
e 27 119
e 28 29
e 28 30
e 28 31
e 28 32
e 28 36
e 28 37
e 28 38
e 28 39
e 28 40
e 28 45
e 28 50
e 28 53
e 28 54
e 28 55
e 28 56
e 28 58
e 28 59
e 28 60
e 28 61
e 28 62
e 28 64
e 28 71
e 28 72
e 28 73
e 28 76
e 28 77
e 28 80
e 28 82
e 28 85
e 28 86
e 28 89
e 28 90
e 28 92
e 28 93
e 28 94
e 28 95
e 28 98
e 28 100
e 28 102
e 28 103
e 28 104
e 28 108
e 28 112
e 28 113
e 28 114
e 28 115
e 28 118
e 28 120
e 29 30
e 29 31
e 29 32
e 29 35
e 29 36
e 29 37
e 29 41
e 29 42
e 29 43
e 29 45
e 29 47
e 29 49
e 29 51
e 29 52
e 29 53
e 29 54
e 29 55
e 29 57
e 29 58
e 29 59
e 29 60
e 29 61
e 29 62
e 29 67
e 29 70
e 29 74
e 29 75
e 29 80
e 29 82
e 29 83
e 29 84
e 29 86
e 29 89
e 29 90
e 29 92
e 29 95
e 29 96
e 29 97
e 29 99
e 29 102
e 29 103
e 29 105
e 29 109
e 29 110
e 29 111
e 29 112
e 29 113
e 29 116
e 29 117
e 30 31
e 30 32
e 30 33
e 30 34
e 30 36
e 30 38
e 30 39
e 30 40
e 30 41
e 30 43
e 30 45
e 30 46
e 30 47
e 30 48
e 30 50
e 30 53
e 30 55
e 30 56
e 30 59
e 30 62
e 30 63
e 30 65
e 30 67
e 30 71
e 30 75
e 30 77
e 30 78
e 30 79
e 30 82
e 30 83
e 30 85
e 30 86
e 30 87
e 30 90
e 30 93
e 30 95
e 30 97
e 30 100
e 30 103
e 30 104
e 30 113
e 30 114
e 30 119
e 30 120
e 31 32
e 31 33
e 31 34
e 31 38
e 31 42
e 31 45
e 31 49
e 31 51
e 31 56
e 31 58
e 31 60
e 31 61
e 31 63
e 31 64
e 31 66
e 31 68
e 31 69
e 31 70
e 31 76
e 31 77
e 31 78
e 31 81
e 31 82
e 31 84
e 31 85
e 31 86
e 31 89
e 31 90
e 31 91
e 31 94
e 31 96
e 31 98
e 31 99
e 31 100
e 31 102
e 31 103
e 31 105
e 31 107
e 31 108
e 31 116
e 31 118
e 32 33
e 32 36
e 32 37
e 32 43
e 32 44
e 32 45
e 32 48
e 32 50
e 32 52
e 32 54
e 32 55
e 32 56
e 32 57
e 32 59
e 32 60
e 32 61
e 32 64
e 32 65
e 32 70
e 32 71
e 32 74
e 32 75
e 32 77
e 32 85
e 32 86
e 32 87
e 32 90
e 32 94
e 32 95
e 32 98
e 32 99
e 32 100
e 32 101
e 32 102
e 32 105
e 32 107
e 32 112
e 32 113
e 32 115
e 32 116
e 32 118
e 33 34
e 33 41
e 33 42
e 33 45
e 33 46
e 33 47
e 33 48
e 33 49
e 33 50
e 33 54
e 33 55
e 33 56
e 33 57
e 33 60
e 33 62
e 33 66
e 33 67
e 33 68
e 33 69
e 33 70
e 33 71
e 33 73
e 33 75
e 33 76
e 33 78
e 33 79
e 33 80
e 33 86
e 33 87
e 33 91
e 33 92
e 33 93
e 33 94
e 33 96
e 33 102
e 33 104
e 33 105
e 33 107
e 33 108
e 33 110
e 33 111
e 33 112
e 33 113
e 33 114
e 33 120
e 34 35
e 34 42
e 34 46
e 34 47
e 34 48
e 34 51
e 34 52
e 34 56
e 34 57
e 34 65
e 34 68
e 34 69
e 34 72
e 34 77
e 34 78
e 34 80
e 34 81
e 34 84
e 34 85
e 34 88
e 34 94
e 34 95
e 34 96
e 34 97
e 34 99
e 34 101
e 34 103
e 34 104
e 34 105
e 34 106
e 34 107
e 34 108
e 34 109
e 34 115
e 34 117
e 34 119
e 34 120
e 35 36
e 35 38
e 35 42
e 35 43
e 35 45
e 35 47
e 35 49
e 35 52
e 35 53
e 35 55
e 35 57
e 35 59
e 35 60
e 35 63
e 35 64
e 35 65
e 35 66
e 35 68
e 35 69
e 35 75
e 35 78
e 35 80
e 35 81
e 35 84
e 35 91
e 35 93
e 35 94
e 35 99
e 35 101
e 35 104
e 35 106
e 35 109
e 35 110
e 35 113
e 35 114
e 35 116
e 35 117
e 35 119
e 36 37
e 36 38
e 36 42
e 36 43
e 36 48
e 36 50
e 36 53
e 36 54
e 36 55
e 36 56
e 36 57
e 36 58
e 36 62
e 36 64
e 36 65
e 36 67
e 36 73
e 36 74
e 36 76
e 36 78
e 36 80
e 36 84
e 36 86
e 36 88
e 36 90
e 36 91
e 36 93
e 36 95
e 36 96
e 36 97
e 36 98
e 36 99
e 36 101
e 36 107
e 36 108
e 36 110
e 36 111
e 36 112
e 36 117
e 36 118
e 37 38
e 37 39
e 37 40
e 37 45
e 37 46
e 37 47
e 37 49
e 37 52
e 37 56
e 37 58
e 37 59
e 37 60
e 37 61
e 37 62
e 37 63
e 37 65
e 37 66
e 37 69
e 37 70
e 37 73
e 37 76
e 37 78
e 37 80
e 37 82
e 37 83
e 37 85
e 37 86
e 37 87
e 37 88
e 37 91
e 37 92
e 37 93
e 37 94
e 37 95
e 37 96
e 37 97
e 37 98
e 37 99
e 37 100
e 37 101
e 37 103
e 37 106
e 37 112
e 37 119
e 38 39
e 38 43
e 38 44
e 38 45
e 38 50
e 38 51
e 38 56
e 38 57
e 38 61
e 38 62
e 38 65
e 38 69
e 38 71
e 38 72
e 38 74
e 38 77
e 38 81
e 38 82
e 38 84
e 38 85
e 38 86
e 38 87
e 38 88
e 38 89
e 38 92
e 38 95
e 38 96
e 38 97
e 38 99
e 38 101
e 38 102
e 38 103
e 38 106
e 38 108
e 38 109
e 38 110
e 38 112
e 38 114
e 38 115
e 38 116
e 38 117
e 39 40
e 39 41
e 39 42
e 39 43
e 39 44
e 39 45
e 39 46
e 39 48
e 39 49
e 39 51
e 39 55
e 39 58
e 39 59
e 39 62
e 39 68
e 39 70
e 39 73
e 39 75
e 39 76
e 39 77
e 39 78
e 39 80
e 39 81
e 39 82
e 39 84
e 39 85
e 39 87
e 39 88
e 39 90
e 39 91
e 39 93
e 39 98
e 39 103
e 39 105
e 39 107
e 39 110
e 39 111
e 39 113
e 39 114
e 39 115
e 39 116
e 39 117
e 39 118
e 39 120
e 40 41
e 40 44
e 40 45
e 40 49
e 40 52
e 40 53
e 40 56
e 40 57
e 40 58
e 40 64
e 40 66
e 40 67
e 40 70
e 40 71
e 40 78
e 40 80
e 40 82
e 40 83
e 40 86
e 40 88
e 40 95
e 40 96
e 40 97
e 40 99
e 40 104
e 40 105
e 40 109
e 40 110
e 40 111
e 40 112
e 40 116
e 40 120
e 41 42
e 41 43
e 41 44
e 41 45
e 41 46
e 41 47
e 41 49
e 41 51
e 41 55
e 41 57
e 41 60
e 41 61
e 41 62
e 41 63
e 41 64
e 41 68
e 41 69
e 41 70
e 41 73
e 41 74
e 41 77
e 41 78
e 41 80
e 41 81
e 41 86
e 41 87
e 41 89
e 41 90
e 41 91
e 41 94
e 41 95
e 41 98
e 41 101
e 41 102
e 41 103
e 41 105
e 41 107
e 41 108
e 41 109
e 41 110
e 41 111
e 41 112
e 41 114
e 41 116
e 41 117
e 41 118
e 41 119
e 42 43
e 42 45
e 42 46
e 42 47
e 42 56
e 42 57
e 42 60
e 42 61
e 42 63
e 42 64
e 42 65
e 42 66
e 42 68
e 42 69
e 42 71
e 42 74
e 42 75
e 42 76
e 42 82
e 42 83
e 42 84
e 42 85
e 42 86
e 42 87
e 42 91
e 42 92
e 42 93
e 42 94
e 42 95
e 42 97
e 42 98
e 42 99
e 42 100
e 42 101
e 42 104
e 42 105
e 42 107
e 42 109
e 42 111
e 42 113
e 42 114
e 42 115
e 42 117
e 42 118
e 42 119
e 43 44
e 43 45
e 43 47
e 43 48
e 43 50
e 43 51
e 43 52
e 43 53
e 43 54
e 43 56
e 43 61
e 43 63
e 43 66
e 43 67
e 43 68
e 43 70
e 43 72
e 43 74
e 43 77
e 43 80
e 43 81
e 43 85
e 43 87
e 43 91
e 43 94
e 43 95
e 43 97
e 43 99
e 43 100
e 43 103
e 43 104
e 43 105
e 43 107
e 43 108
e 43 112
e 43 113
e 43 114
e 43 115
e 43 116
e 44 45
e 44 49
e 44 51
e 44 61
e 44 64
e 44 65
e 44 66
e 44 67
e 44 68
e 44 69
e 44 71
e 44 72
e 44 76
e 44 77
e 44 78
e 44 79
e 44 83
e 44 85
e 44 88
e 44 89
e 44 90
e 44 92
e 44 94
e 44 95
e 44 98
e 44 102
e 44 106
e 44 108
e 44 110
e 44 112
e 44 113
e 44 114
e 44 115
e 44 117
e 45 46
e 45 47
e 45 50
e 45 51
e 45 52
e 45 55
e 45 56
e 45 57
e 45 58
e 45 59
e 45 60
e 45 62
e 45 63
e 45 64
e 45 71
e 45 74
e 45 75
e 45 76
e 45 77
e 45 83
e 45 86
e 45 87
e 45 88
e 45 89
e 45 90
e 45 91
e 45 94
e 45 97
e 45 100
e 45 101
e 45 105
e 45 106
e 45 107
e 45 108
e 45 110
e 45 114
e 45 115
e 45 116
e 45 119
e 46 47
e 46 48
e 46 49
e 46 50
e 46 52
e 46 53
e 46 54
e 46 61
e 46 62
e 46 65
e 46 66
e 46 69
e 46 71
e 46 73
e 46 74
e 46 75
e 46 77
e 46 78
e 46 81
e 46 82
e 46 83
e 46 85
e 46 86
e 46 90
e 46 91
e 46 92
e 46 97
e 46 99
e 46 100
e 46 101
e 46 103
e 46 104
e 46 105
e 46 106
e 46 109
e 46 113
e 46 114
e 46 115
e 46 117
e 47 48
e 47 51
e 47 53
e 47 54
e 47 57
e 47 58
e 47 59
e 47 60
e 47 62
e 47 65
e 47 67
e 47 68
e 47 69
e 47 71
e 47 74
e 47 75
e 47 78
e 47 81
e 47 84
e 47 85
e 47 87
e 47 88
e 47 89
e 47 90
e 47 94
e 47 96
e 47 97
e 47 98
e 47 105
e 47 106
e 47 108
e 47 115
e 47 116
e 47 117
e 48 49
e 48 50
e 48 51
e 48 52
e 48 53
e 48 54
e 48 55
e 48 57
e 48 61
e 48 65
e 48 66
e 48 69
e 48 70
e 48 71
e 48 73
e 48 75
e 48 77
e 48 78
e 48 79
e 48 80
e 48 81
e 48 82
e 48 84
e 48 85
e 48 86
e 48 87
e 48 88
e 48 91
e 48 92
e 48 95
e 48 96
e 48 102
e 48 103
e 48 104
e 48 107
e 48 109
e 48 110
e 48 111
e 48 112
e 48 114
e 48 117
e 49 50
e 49 51
e 49 52
e 49 54
e 49 55
e 49 56
e 49 57
e 49 60
e 49 65
e 49 66
e 49 67
e 49 68
e 49 69
e 49 72
e 49 73
e 49 74
e 49 80
e 49 81
e 49 82
e 49 83
e 49 84
e 49 86
e 49 88
e 49 91
e 49 95
e 49 100
e 49 103
e 49 104
e 49 107
e 49 108
e 49 109
e 49 110
e 49 114
e 49 115
e 49 118
e 49 119
e 50 51
e 50 56
e 50 57
e 50 59
e 50 61
e 50 62
e 50 65
e 50 66
e 50 68
e 50 69
e 50 71
e 50 73
e 50 74
e 50 80
e 50 84
e 50 86
e 50 89
e 50 91
e 50 92
e 50 94
e 50 95
e 50 100
e 50 101
e 50 102
e 50 105
e 50 107
e 50 108
e 50 110
e 50 113
e 50 116
e 50 119
e 51 52
e 51 54
e 51 55
e 51 56
e 51 59
e 51 60
e 51 61
e 51 62
e 51 65
e 51 71
e 51 72
e 51 73
e 51 75
e 51 78
e 51 79
e 51 80
e 51 83
e 51 84
e 51 85
e 51 86
e 51 87
e 51 88
e 51 89
e 51 93
e 51 94
e 51 95
e 51 96
e 51 99
e 51 104
e 51 105
e 51 106
e 51 114
e 51 115
e 51 116
e 51 118
e 52 53
e 52 55
e 52 56
e 52 57
e 52 61
e 52 62
e 52 63
e 52 64
e 52 65
e 52 66
e 52 68
e 52 72
e 52 77
e 52 78
e 52 81
e 52 82
e 52 83
e 52 85
e 52 86
e 52 87
e 52 92
e 52 95
e 52 98
e 52 99
e 52 100
e 52 103
e 52 104
e 52 107
e 52 111
e 52 112
e 52 115
e 52 117
e 52 118
e 53 54
e 53 57
e 53 59
e 53 60
e 53 61
e 53 63
e 53 65
e 53 66
e 53 67
e 53 70
e 53 71
e 53 75
e 53 76
e 53 79
e 53 82
e 53 84
e 53 86
e 53 88
e 53 89
e 53 92
e 53 93
e 53 94
e 53 97
e 53 98
e 53 99
e 53 100
e 53 103
e 53 106
e 53 109
e 53 110
e 53 112
e 53 113
e 53 114
e 53 115
e 54 55
e 54 57
e 54 61
e 54 64
e 54 65
e 54 67
e 54 68
e 54 69
e 54 72
e 54 74
e 54 75
e 54 77
e 54 78
e 54 79
e 54 80
e 54 83
e 54 85
e 54 86
e 54 87
e 54 88
e 54 89
e 54 93
e 54 96
e 54 98
e 54 99
e 54 102
e 54 106
e 54 109
e 54 110
e 54 112
e 54 113
e 54 114
e 54 116
e 54 117
e 54 119
e 55 56
e 55 57
e 55 64
e 55 65
e 55 66
e 55 68
e 55 72
e 55 74
e 55 77
e 55 79
e 55 81
e 55 83
e 55 85
e 55 87
e 55 89
e 55 90
e 55 94
e 55 95
e 55 96
e 55 97
e 55 99
e 55 100
e 55 102
e 55 103
e 55 104
e 55 105
e 55 106
e 55 107
e 55 108
e 55 111
e 55 112
e 55 113
e 55 114
e 55 116
e 55 118
e 56 57
e 56 58
e 56 59
e 56 63
e 56 64
e 56 65
e 56 66
e 56 68
e 56 69
e 56 71
e 56 73
e 56 74
e 56 75
e 56 77
e 56 78
e 56 79
e 56 80
e 56 81
e 56 84
e 56 85
e 56 86
e 56 88
e 56 89
e 56 92
e 56 94
e 56 96
e 56 97
e 56 98
e 56 99
e 56 102
e 56 103
e 56 104
e 56 108
e 56 110
e 56 113
e 56 114
e 56 118
e 56 120
e 57 58
e 57 60
e 57 61
e 57 67
e 57 68
e 57 70
e 57 71
e 57 73
e 57 74
e 57 77
e 57 78
e 57 87
e 57 89
e 57 93
e 57 95
e 57 96
e 57 98
e 57 102
e 57 104
e 57 105
e 57 106
e 57 108
e 57 109
e 57 113
e 57 114
e 57 117
e 57 118
e 57 119
e 58 59
e 58 60
e 58 65
e 58 68
e 58 70
e 58 72
e 58 75
e 58 77
e 58 78
e 58 79
e 58 80
e 58 81
e 58 82
e 58 84
e 58 85
e 58 87
e 58 88
e 58 93
e 58 95
e 58 96
e 58 102
e 58 103
e 58 104
e 58 106
e 58 108
e 58 110
e 58 111
e 58 112
e 58 114
e 58 118
e 58 119
e 59 60
e 59 63
e 59 64
e 59 65
e 59 70
e 59 72
e 59 76
e 59 78
e 59 80
e 59 81
e 59 83
e 59 86
e 59 88
e 59 90
e 59 96
e 59 97
e 59 100
e 59 101
e 59 103
e 59 106
e 59 107
e 59 109
e 59 115
e 59 116
e 59 118
e 60 61
e 60 62
e 60 65
e 60 69
e 60 72
e 60 73
e 60 74
e 60 79
e 60 81
e 60 82
e 60 83
e 60 84
e 60 85
e 60 86
e 60 87
e 60 88
e 60 93
e 60 94
e 60 95
e 60 96
e 60 97
e 60 104
e 60 111
e 60 113
e 60 115
e 60 117
e 60 120
e 61 62
e 61 63
e 61 68
e 61 75
e 61 77
e 61 78
e 61 81
e 61 83
e 61 85
e 61 86
e 61 87
e 61 91
e 61 94
e 61 95
e 61 97
e 61 98
e 61 99
e 61 104
e 61 106
e 61 109
e 61 110
e 61 115
e 61 117
e 61 118
e 62 63
e 62 66
e 62 67
e 62 68
e 62 71
e 62 74
e 62 76
e 62 78
e 62 85
e 62 87
e 62 90
e 62 92
e 62 94
e 62 97
e 62 98
e 62 99
e 62 107
e 62 108
e 62 109
e 62 112
e 62 113
e 62 115
e 63 64
e 63 65
e 63 67
e 63 68
e 63 69
e 63 70
e 63 72
e 63 74
e 63 75
e 63 79
e 63 83
e 63 85
e 63 87
e 63 89
e 63 90
e 63 91
e 63 92
e 63 93
e 63 94
e 63 95
e 63 97
e 63 101
e 63 102
e 63 104
e 63 106
e 63 109
e 63 110
e 63 111
e 63 112
e 63 113
e 63 114
e 63 116
e 63 117
e 63 118
e 63 119
e 64 65
e 64 67
e 64 69
e 64 70
e 64 71
e 64 72
e 64 75
e 64 76
e 64 77
e 64 79
e 64 80
e 64 82
e 64 83
e 64 85
e 64 86
e 64 88
e 64 89
e 64 92
e 64 95
e 64 98
e 64 99
e 64 101
e 64 103
e 64 104
e 64 105
e 64 107
e 64 108
e 64 109
e 64 110
e 64 112
e 64 115
e 64 116
e 64 117
e 64 118
e 65 66
e 65 67
e 65 68
e 65 70
e 65 71
e 65 75
e 65 76
e 65 79
e 65 80
e 65 83
e 65 84
e 65 85
e 65 86
e 65 88
e 65 91
e 65 92
e 65 96
e 65 97
e 65 98
e 65 99
e 65 100
e 65 103
e 65 104
e 65 105
e 65 107
e 65 109
e 65 110
e 65 112
e 65 117
e 65 119
e 66 67
e 66 73
e 66 74
e 66 76
e 66 77
e 66 78
e 66 81
e 66 85
e 66 86
e 66 88
e 66 90
e 66 91
e 66 93
e 66 95
e 66 96
e 66 97
e 66 99
e 66 101
e 66 105
e 66 108
e 66 109
e 66 111
e 66 112
e 66 113
e 66 115
e 66 116
e 66 117
e 66 119
e 66 120
e 67 68
e 67 70
e 67 71
e 67 73
e 67 77
e 67 79
e 67 80
e 67 84
e 67 86
e 67 88
e 67 89
e 67 90
e 67 93
e 67 94
e 67 95
e 67 100
e 67 101
e 67 103
e 67 104
e 67 105
e 67 106
e 67 108
e 67 110
e 67 114
e 67 115
e 67 117
e 67 119
e 68 69
e 68 73
e 68 74
e 68 76
e 68 77
e 68 78
e 68 79
e 68 81
e 68 83
e 68 90
e 68 93
e 68 95
e 68 98
e 68 100
e 68 102
e 68 109
e 68 110
e 68 111
e 68 112
e 68 114
e 68 117
e 68 118
e 68 120
e 69 70
e 69 72
e 69 73
e 69 76
e 69 77
e 69 80
e 69 83
e 69 84
e 69 86
e 69 91
e 69 92
e 69 96
e 69 97
e 69 98
e 69 99
e 69 102
e 69 106
e 69 108
e 69 109
e 69 111
e 69 115
e 69 116
e 69 118
e 69 120
e 70 71
e 70 74
e 70 75
e 70 76
e 70 79
e 70 82
e 70 85
e 70 87
e 70 89
e 70 93
e 70 94
e 70 97
e 70 98
e 70 100
e 70 101
e 70 110
e 70 112
e 70 115
e 70 116
e 70 119
e 70 120
e 71 72
e 71 73
e 71 79
e 71 80
e 71 83
e 71 84
e 71 85
e 71 86
e 71 87
e 71 89
e 71 91
e 71 92
e 71 96
e 71 97
e 71 99
e 71 101
e 71 102
e 71 104
e 71 106
e 71 108
e 71 109
e 71 110
e 71 112
e 71 113
e 71 116
e 71 117
e 71 118
e 72 73
e 72 74
e 72 75
e 72 77
e 72 79
e 72 80
e 72 81
e 72 83
e 72 85
e 72 87
e 72 88
e 72 91
e 72 93
e 72 94
e 72 95
e 72 97
e 72 98
e 72 102
e 72 103
e 72 108
e 72 109
e 72 112
e 72 114
e 72 115
e 72 117
e 72 119
e 72 120
e 73 74
e 73 76
e 73 77
e 73 78
e 73 79
e 73 81
e 73 83
e 73 85
e 73 87
e 73 88
e 73 92
e 73 93
e 73 95
e 73 97
e 73 98
e 73 100
e 73 103
e 73 104
e 73 105
e 73 106
e 73 107
e 73 108
e 73 111
e 73 112
e 73 113
e 73 114
e 73 115
e 73 116
e 73 117
e 73 118
e 73 119
e 73 120
e 74 75
e 74 76
e 74 77
e 74 79
e 74 80
e 74 81
e 74 82
e 74 83
e 74 84
e 74 86
e 74 87
e 74 88
e 74 91
e 74 94
e 74 99
e 74 102
e 74 103
e 74 105
e 74 107
e 74 111
e 74 114
e 74 116
e 74 118
e 74 119
e 75 76
e 75 77
e 75 81
e 75 82
e 75 89
e 75 90
e 75 91
e 75 92
e 75 94
e 75 100
e 75 101
e 75 102
e 75 103
e 75 107
e 75 108
e 75 112
e 75 113
e 75 114
e 75 117
e 75 118
e 75 120
e 76 77
e 76 81
e 76 82
e 76 85
e 76 88
e 76 89
e 76 91
e 76 93
e 76 94
e 76 95
e 76 98
e 76 100
e 76 101
e 76 105
e 76 111
e 76 114
e 76 115
e 76 116
e 76 118
e 76 119
e 77 78
e 77 80
e 77 83
e 77 84
e 77 87
e 77 90
e 77 91
e 77 93
e 77 94
e 77 97
e 77 100
e 77 101
e 77 104
e 77 106
e 77 111
e 77 112
e 77 114
e 77 118
e 77 119
e 78 79
e 78 81
e 78 82
e 78 83
e 78 84
e 78 86
e 78 87
e 78 90
e 78 91
e 78 95
e 78 97
e 78 98
e 78 99
e 78 100
e 78 102
e 78 103
e 78 106
e 78 107
e 78 108
e 78 109
e 78 111
e 78 113
e 78 114
e 78 115
e 78 120
e 79 80
e 79 82
e 79 83
e 79 86
e 79 93
e 79 96
e 79 97
e 79 99
e 79 102
e 79 103
e 79 109
e 79 115
e 79 116
e 79 118
e 79 120
e 80 81
e 80 83
e 80 84
e 80 85
e 80 87
e 80 89
e 80 90
e 80 91
e 80 93
e 80 94
e 80 99
e 80 100
e 80 101
e 80 104
e 80 106
e 80 108
e 80 109
e 80 110
e 80 111
e 80 112
e 80 113
e 80 114
e 80 116
e 80 120
e 81 82
e 81 84
e 81 85
e 81 86
e 81 89
e 81 96
e 81 97
e 81 101
e 81 102
e 81 105
e 81 106
e 81 108
e 81 109
e 81 110
e 81 112
e 81 114
e 81 117
e 81 119
e 82 83
e 82 87
e 82 88
e 82 90
e 82 92
e 82 93
e 82 94
e 82 96
e 82 97
e 82 98
e 82 100
e 82 102
e 82 104
e 82 108
e 82 112
e 82 113
e 82 115
e 82 116
e 82 117
e 82 118
e 83 84
e 83 91
e 83 92
e 83 93
e 83 95
e 83 96
e 83 97
e 83 99
e 83 100
e 83 104
e 83 106
e 83 107
e 83 111
e 83 112
e 83 113
e 83 116
e 83 117
e 83 118
e 84 85
e 84 86
e 84 87
e 84 88
e 84 89
e 84 91
e 84 92
e 84 93
e 84 96
e 84 98
e 84 99
e 84 101
e 84 102
e 84 103
e 84 104
e 84 105
e 84 108
e 84 112
e 84 113
e 84 114
e 84 115
e 84 119
e 85 86
e 85 90
e 85 91
e 85 93
e 85 97
e 85 98
e 85 99
e 85 101
e 85 102
e 85 103
e 85 105
e 85 108
e 85 110
e 85 114
e 85 118
e 86 87
e 86 90
e 86 91
e 86 95
e 86 97
e 86 98
e 86 100
e 86 102
e 86 103
e 86 104
e 86 106
e 86 109
e 86 110
e 86 112
e 86 113
e 86 115
e 86 116
e 86 119
e 86 120
e 87 88
e 87 89
e 87 91
e 87 92
e 87 93
e 87 94
e 87 95
e 87 97
e 87 100
e 87 102
e 87 105
e 87 108
e 87 110
e 87 111
e 87 112
e 87 113
e 87 114
e 87 115
e 87 117
e 88 89
e 88 90
e 88 91
e 88 92
e 88 98
e 88 99
e 88 100
e 88 103
e 88 104
e 88 109
e 88 110
e 88 112
e 88 114
e 89 90
e 89 92
e 89 93
e 89 96
e 89 97
e 89 98
e 89 103
e 89 104
e 89 105
e 89 106
e 89 108
e 89 110
e 89 113
e 89 115
e 89 116
e 89 119
e 90 91
e 90 94
e 90 96
e 90 98
e 90 99
e 90 100
e 90 101
e 90 102
e 90 103
e 90 105
e 90 106
e 90 111
e 90 112
e 90 116
e 90 117
e 90 118
e 91 92
e 91 95
e 91 98
e 91 100
e 91 104
e 91 107
e 91 108
e 91 111
e 91 112
e 91 113
e 91 114
e 91 115
e 91 117
e 91 119
e 92 93
e 92 95
e 92 97
e 92 98
e 92 99
e 92 100
e 92 103
e 92 104
e 92 105
e 92 106
e 92 108
e 92 111
e 92 112
e 92 114
e 92 118
e 93 94
e 93 95
e 93 96
e 93 98
e 93 100
e 93 101
e 93 103
e 93 104
e 93 106
e 93 109
e 93 110
e 93 111
e 93 112
e 93 113
e 93 114
e 93 115
e 93 118
e 93 119
e 94 95
e 94 97
e 94 98
e 94 100
e 94 101
e 94 102
e 94 103
e 94 105
e 94 106
e 94 107
e 94 109
e 94 110
e 94 112
e 94 115
e 94 116
e 94 118
e 95 96
e 95 97
e 95 98
e 95 99
e 95 102
e 95 103
e 95 105
e 95 106
e 95 107
e 95 108
e 95 109
e 95 112
e 95 113
e 95 114
e 95 117
e 95 118
e 95 119
e 96 97
e 96 100
e 96 102
e 96 103
e 96 104
e 96 105
e 96 107
e 96 108
e 96 109
e 96 112
e 96 114
e 96 117
e 96 118
e 96 119
e 96 120
e 97 98
e 97 102
e 97 104
e 97 107
e 97 108
e 97 109
e 97 110
e 97 112
e 97 115
e 97 116
e 97 117
e 97 118
e 97 120
e 98 99
e 98 101
e 98 103
e 98 107
e 98 108
e 98 109
e 98 110
e 98 115
e 98 117
e 98 118
e 99 100
e 99 101
e 99 102
e 99 103
e 99 104
e 99 105
e 99 107
e 99 109
e 99 110
e 99 111
e 99 112
e 99 113
e 99 117
e 99 119
e 100 101
e 100 104
e 100 107
e 100 111
e 100 113
e 100 116
e 100 117
e 100 120
e 101 102
e 101 104
e 101 105
e 101 106
e 101 109
e 101 110
e 101 111
e 101 116
e 101 117
e 101 118
e 101 119
e 101 120
e 102 103
e 102 106
e 102 112
e 102 113
e 102 117
e 102 118
e 102 119
e 102 120
e 103 104
e 103 105
e 103 106
e 103 107
e 103 110
e 103 111
e 103 115
e 103 117
e 103 118
e 104 105
e 104 107
e 104 111
e 104 112
e 104 118
e 104 119
e 105 106
e 105 108
e 105 109
e 105 112
e 105 113
e 105 114
e 105 117
e 105 118
e 106 107
e 106 109
e 106 110
e 106 111
e 106 114
e 106 116
e 106 119
e 107 108
e 107 109
e 107 110
e 107 111
e 107 112
e 107 113
e 107 114
e 107 116
e 107 118
e 107 120
e 108 109
e 108 111
e 108 112
e 108 113
e 108 115
e 108 116
e 108 118
e 109 110
e 109 111
e 109 116
e 109 118
e 109 119
e 110 111
e 110 115
e 110 117
e 110 118
e 110 120
e 111 112
e 111 114
e 111 116
e 111 117
e 111 119
e 112 113
e 112 114
e 112 116
e 112 117
e 112 118
e 113 114
e 113 115
e 113 117
e 113 118
e 114 115
e 114 116
e 115 116
e 115 119
e 116 117
e 116 119
e 116 120
e 117 118
e 117 119
e 118 119
e 119 120
